% ----DATA VARIABLES----

t=12;%number of attributes
k=8;%max length of the support set
n=10;%number of positive instances
m=10;%number of negative instances
c=2;%number of atMostOne Constraints

% ----OMEGAS----

omegap= [| 1, 1, 1, 0, 1, 0, 1, 1, 1, 1, 0, 1|
 0, 1, 0, 0, 1, 1, 1, 1, 1, 0, 0, 1|
 1, 0, 0, 0, 0, 1, 0, 0, 1, 0, 1, 0|
 1, 1, 0, 0, 0, 0, 1, 1, 0, 0, 1, 0|
 1, 1, 0, 0, 0, 0, 1, 0, 0, 1, 1, 1|
 0, 1, 0, 0, 0, 1, 1, 0, 0, 1, 0, 1|
 1, 0, 0, 0, 0, 1, 0, 1, 0, 1, 1, 0|
 1, 0, 1, 0, 1, 0, 1, 1, 0, 0, 1, 1|
 0, 0, 0, 1, 0, 0, 1, 1, 1, 0, 1, 1|
 0, 1, 0, 1, 0, 1, 1, 0, 1, 0, 0, 0|];

omegan= [| 1, 1, 1, 1, 1, 1, 1, 1, 1, 0, 0, 1|
 0, 1, 0, 1, 0, 1, 1, 0, 1, 1, 0, 0|
 1, 1, 0, 0, 0, 1, 0, 1, 0, 0, 0, 1|
 0, 0, 0, 0, 0, 0, 1, 1, 1, 0, 1, 1|
 0, 1, 1, 1, 0, 1, 0, 1, 0, 0, 0, 1|
 1, 1, 1, 1, 1, 1, 1, 1, 1, 0, 0, 0|
 1, 0, 1, 1, 1, 0, 1, 1, 0, 0, 0, 0|
 1, 0, 1, 0, 0, 1, 0, 0, 0, 0, 0, 0|
 0, 1, 1, 0, 0, 1, 1, 0, 1, 0, 1, 0|
 1, 1, 1, 1, 1, 1, 1, 0, 0, 1, 0, 1|];

% ----CONSTRAINS----

atMostOne=[{7, 8, 10}, {3}];